letting n =  10
letting blocks =  [[1, 2], [1, 3], [1, 8], [2, 3], [3, 2], [3, 5], [3, 6], [3, 7], [4, 2], [4, 3], [4, 4], [4, 6], [4, 7], [5, 3], [5, 4], [5, 7], [6, 1], [6, 6], [8, 8], [9, 2], [9, 3], [9, 7], [10, 8], [10, 9]]
